al-pu
1.0
       13.110000000       0.0000000000         0.0000000000
       0.0000000000        13.1100000000        0.0000000000
       0.0000000000        0.0000000000         52.620000000
C     H    N    O    Si 
107   36   4    6    72
Cartesian
7.2087    8.3637    12.138299999999994    
12.6713    2.9664    12.399299999999995    
1.0909    4.8748    12.507799999999994    
12.8304    6.9935    12.691399999999994    
12.6548    8.4207    13.181699999999994    
1.0362    6.2922    13.078999999999995    
9.3614    8.5058    16.105399999999996    
8.3087    7.4207    16.041399999999996    
0.4628    10.5755    13.034199999999995    
4.9083    2.2502    12.283199999999995    
9.1920    1.1223    14.096299999999994    
6.9823    6.9527    12.612399999999994    
5.6674    6.5177    12.753799999999995    
5.3686    5.1685    12.773999999999994    
6.3573    4.1992    12.590399999999995    
7.6757    4.6420    12.471799999999995    
7.9852    5.9939    12.481599999999995    
7.9684    9.4491    12.861999999999995    
9.1925    9.8504    12.334299999999995    
9.7826    11.0398    12.720399999999994    
4.0234    11.7752    12.399399999999995    
2.9498    10.8963    12.526799999999994    
3.8680    0.0519    12.485999999999995    
1.6603    11.3981    12.745699999999994    
1.4847    12.7861    12.784199999999995    
2.5684    0.5221    12.671099999999994    
7.3534    10.2742    13.797099999999995    
9.1874    11.8592    13.673699999999995    
7.9634    11.4507    14.215499999999995    
8.7402    6.0025    15.741699999999994    
10.0883    5.6802    15.486799999999995    
10.4389    4.3756    15.185499999999994    
9.4920    3.3568    15.089599999999995    
8.1637    3.6801    15.381599999999995    
7.7776    4.9751    15.699599999999995    
1.2343    1.0538    2.0683    
3.4186    1.0542    4.2756    
1.2307    3.2361    4.2883    
3.4204    3.2430    2.0619    
5.6065    1.0670    2.0611    
5.6115    3.2456    4.2713    
1.2391    5.4274    2.0580    
3.4204    5.4337    4.2736    
5.6022    5.4338    2.0441    
1.2359    1.0386    6.4589    
3.4313    1.0569    8.6199    
1.2723    3.2051    8.6330    
3.4223    3.2451    6.4391    
5.6110    1.0551    6.4462    
5.6166    3.2485    8.5881    
1.2472    5.4204    6.4622    
3.4300    5.4222    8.6803    
5.6010    5.4343    6.4308    
7.7963    1.0653    4.2662    
7.7973    3.2487    2.0443    
9.9776    1.0637    2.0557    
12.1533    1.0522    4.2858    
9.9805    3.2422    4.2739    
12.1625    3.2419    2.0645    
7.7937    5.4251    4.2650    
9.9856    5.4338    2.0555    
12.1687    5.4247    4.2829    
7.7816    1.0710    8.7269    
7.8055    3.2353    6.4524    
9.9732    1.0650    6.4823    
12.1633    1.0533    8.6919    
9.9622    3.2597    8.6990    
12.1575    3.2323    6.4724    
7.7858    5.4413    8.5976    
9.9792    5.4243    6.4508    
12.1619    5.4300    8.6448    
1.2342    7.6157    4.2819    
3.4216    7.6156    2.0588    
5.6036    7.6144    4.2682    
1.2418    9.7952    2.0592    
3.4072    9.7970    4.2789    
1.2341    11.9799    4.2788    
3.4162    11.9866    2.0665    
5.5971    9.8052    2.0574    
5.6042    11.9894    4.2690    
1.2436    7.6101    8.6736    
3.4070    7.6129    6.4604    
5.5995    7.6240    8.6064    
1.2323    9.8024    6.4771    
3.4249    9.8039    8.6736    
1.2318    11.9884    8.6921    
3.4172    11.9772    6.4611    
5.5867    9.8067    6.4234    
5.6030    11.9937    8.6698    
7.7925    7.6135    2.0551    
9.9844    7.6191    4.2749    
12.1674    7.6145    2.0707    
7.7898    9.8151    4.2725    
7.7942    11.9888    2.0529    
9.9794    9.7992    2.0601    
12.1689    9.8021    4.2762    
9.9828    11.9886    4.2788    
12.1674    11.9790    2.0674    
7.7963    7.6171    6.4276    
9.9784    7.6066    8.6549    
12.1687    7.6216    6.4678    
7.7530    9.8517    8.5358    
7.7912    12.0144    6.4493    
9.9923    9.8052    6.4502    
12.1574    9.7948    8.7109    
9.9674    11.9877    8.6703    
12.1611    11.9817    6.4794    
6.2431    8.7982    11.832099999999995    
7.7690    8.1798    11.223599999999994    
4.8393    7.2367    12.818599999999995    
4.3169    4.8965    12.900799999999995    
8.4769    3.9050    12.321499999999995    
12.7294    7.0149    11.599699999999995    
0.9661    4.9556    11.426999999999994    
9.0357    6.2847    12.323599999999995    
9.7154    9.2484    11.589499999999994    
10.7074    11.3499    12.229299999999995    
12.0869    3.2698    11.524899999999995    
12.0187    2.4129    13.082099999999995    
5.0285    11.3534    12.264799999999994    
0.3807    2.3153    12.083499999999995    
3.1496    9.8153    12.468999999999994    
11.9811    6.3893    13.052699999999994    
2.0549    4.3778    12.690899999999994    
11.6785    8.7931    12.824599999999995    
1.8961    6.8729    12.701299999999994    
0.4976    0.1314    12.945599999999995    
2.3434    1.5827    12.779699999999995    
6.3779    9.9998    14.225399999999995    
7.4527    12.0697    14.962499999999995    
9.8742    8.5702    15.134299999999994    
12.6565    8.4588    14.285499999999995    
1.1508    6.2581    14.175299999999995    
10.8880    6.4279    15.529699999999995    
11.4977    4.1523    14.999499999999994    
7.3828    2.9063    15.343899999999994    
6.7127    5.1818    15.883599999999994    
10.1093    8.2388    16.86050000000001    
8.9123    9.4781    16.351200000000002    
6.8560    2.2384    12.743299999999994    
5.8851    0.5530    12.601999999999995    
10.8246    1.8149    15.013299999999994    
10.7771    12.9821    14.336899999999995    
6.0777    2.8127    12.534699999999996    
4.9863    0.9310    12.433299999999994    
9.8335    13.0774    14.074599999999995    
9.9086    2.0395    14.728999999999994    
3.9183    2.8595    11.965799999999994    
8.1016    1.2952    13.613599999999995    
12.5772    11.0015    13.566299999999995    
7.1405    7.7104    16.218999999999998    
0.5805    9.2653    12.677399999999995    
0.0346    4.1090    13.092099999999995    
0.1464    13.0696    1.1449    
2.3264    13.0722    3.2863    
0.1394    2.1407    3.2987    
2.3363    2.1377    1.1487    
4.5178    13.0718    1.1510    
4.5116    2.1494    3.2876    
0.1537    4.3236    1.1458    
2.3230    4.3310    3.2934    
4.5095    4.3345    1.1359    
0.1385    13.0636    5.4613    
2.3272    13.0580    7.6840    
0.1480    2.1262    7.6845    
2.3241    2.1420    5.4606    
4.5122    13.0726    5.4553    
4.5121    2.1487    7.6314    
0.1448    4.3261    5.4709    
2.3522    4.3271    7.6800    
4.5109    4.3371    5.4411    
6.7041    13.0767    3.2808    
6.7003    2.1551    1.1295    
8.8815    13.0865    1.1274    
11.0670    13.0791    3.2790    
8.8856    2.1587    3.2737    
11.0643    2.1629    1.1364    
6.6975    4.3381    3.2728    
8.8901    4.3493    1.1315    
11.0753    4.3361    3.2868    
6.7010    13.0946    7.7111    
6.7062    2.1526    5.4448    
8.8891    13.0991    5.4507    
11.0675    13.0830    7.7045    
8.8705    2.1539    7.7229    
11.0596    2.1502    5.4642    
6.7004    4.3480    7.6267    
8.8877    4.3340    5.4481    
11.0556    4.3352    7.6885    
0.1463    6.5193    3.2854    
2.3350    6.5159    1.1332    
4.5137    6.5232    3.2705    
0.1470    8.7033    1.1394    
2.3228    8.7010    3.2829    
0.1469    10.8847    3.2792    
2.3339    10.8896    1.1420    
4.5110    8.7089    1.1363    
4.5062    10.8922    3.2859    
0.1535    6.5208    7.6744    
2.3268    6.5192    5.4525    
4.5055    6.5098    7.6675    
0.1494    8.7111    5.4636    
2.3300    8.7057    7.6954    
0.1388    10.8862    7.7210    
2.3238    10.8873    5.4632    
4.4953    8.7015    5.4467    
4.5154    10.8950    7.6831    
6.7032    6.5218    1.1325    
8.8912    6.5213    3.2818    
11.0845    6.5229    1.1416    
6.6938    8.7144    3.2839    
6.7042    10.8835    1.1409    
8.8908    8.7053    1.1375    
11.0759    8.7086    3.2826    
8.8896    10.8975    3.2820    
11.0658    10.8983    1.1427    
6.7033    6.5210    5.4342    
8.8916    6.5316    7.6476    
11.0758    6.5251    5.4636    
6.6804    8.7114    7.6011    
6.6952    10.9087    5.4567    
8.8903    8.7194    5.4468    
11.0739    8.7168    7.6971    
8.8968    10.9294    7.6318    
11.0830    10.8934    5.4528    
